p cnf 1725
-23 -541
-24 -544
-25 -547
-26 -550
-27 -553
-28 -556
-29 -559
-30 -562
-31 -565
-32 -568
-33 -571
-34 -574
-35 -577
-36 -580
-37 -583
-38 -586
-39 -589
-40 -592
-41 -595
-42 -598
-43 -601
-44 -604
-45 605
-46 606
-47 607
-48 608
-49 609
-50 610
-51 611
-52 612
-53 613
-54 614
-55 615
-56 616
-57 617
-58 618
-59 619
-60 620
-61 -24
-61 -25
24 25 61
-62 -26
-62 -27
26 27 62
-63 -28
-63 -29
28 29 63
-64 -30
-64 -31
30 31 64
-65 -32
-65 -33
32 33 65
-66 -34
-66 -35
34 35 66
-67 -36
-67 -37
36 37 67
-68 -38
-68 -39
38 39 68
-69 -40
-69 -41
40 41 69
-70 -42
-70 -43
42 43 70
-71 -44
-71 -45
44 45 71
-72 -46
-72 -47
46 47 72
-73 -48
-73 -49
48 49 73
-74 -50
-74 -51
50 51 74
-75 -52
-75 -53
52 53 75
-76 -54
-76 -55
54 55 76
-77 -56
-77 -57
56 57 77
-78 -58
-78 -59
58 59 78
-79 61
-79 62
-61 -62 79
-80 63
-80 64
-63 -64 80
-81 65
-81 66
-65 -66 81
-82 67
-82 68
-67 -68 82
-83 69
-83 70
-69 -70 83
-84 71
-84 72
-71 -72 84
-85 73
-85 74
-73 -74 85
-86 75
-86 76
-75 -76 86
-87 77
-87 78
-77 -78 87
-88 79
-88 80
-79 -80 88
-89 81
-89 82
-81 -82 89
-90 83
-90 84
-83 -84 90
-91 85
-91 86
-85 -86 91
-92 -60
-92 87
60 -87 92
-93 88
-93 89
-88 -89 93
-94 90
-94 91
-90 -91 94
-95 93
-95 94
-93 -94 95
-96 92
-96 95
-92 -95 96
-97 -23
-97 24
23 -24 97
-98 23
-98 -24
-23 24 98
-99 -97
-99 -98
97 98 99
-100 23
-100 24
-23 -24 100
-101 -23
-101 -99
23 99 101
-102 23
-102 99
-23 -99 102
-103 -101
-103 -102
101 102 103
-104 23
-104 -99
-23 99 104
-105 -100
-105 -104
100 104 105
-106 -24
-106 25
24 -25 106
-107 24
-107 -25
-24 25 107
-108 -106
-108 -107
106 107 108
-109 24
-109 25
-24 -25 109
-110 105
-110 -108
-105 108 110
-111 -105
-111 108
105 -108 111
-112 -110
-112 -111
110 111 112
-113 -105
-113 -108
105 108 113
-114 -109
-114 -113
109 113 114
-115 -25
-115 26
25 -26 115
-116 25
-116 -26
-25 26 116
-117 -115
-117 -116
115 116 117
-118 25
-118 26
-25 -26 118
-119 114
-119 -117
-114 117 119
-120 -114
-120 117
114 -117 120
-121 -119
-121 -120
119 120 121
-122 -114
-122 -117
114 117 122
-123 -118
-123 -122
118 122 123
-124 -26
-124 27
26 -27 124
-125 26
-125 -27
-26 27 125
-126 -124
-126 -125
124 125 126
-127 26
-127 27
-26 -27 127
-128 123
-128 -126
-123 126 128
-129 -123
-129 126
123 -126 129
-130 -128
-130 -129
128 129 130
-131 -123
-131 -126
123 126 131
-132 -127
-132 -131
127 131 132
-133 -27
-133 28
27 -28 133
-134 27
-134 -28
-27 28 134
-135 -133
-135 -134
133 134 135
-136 27
-136 28
-27 -28 136
-137 132
-137 -135
-132 135 137
-138 -132
-138 135
132 -135 138
-139 -137
-139 -138
137 138 139
-140 -132
-140 -135
132 135 140
-141 -136
-141 -140
136 140 141
-142 -28
-142 29
28 -29 142
-143 28
-143 -29
-28 29 143
-144 -142
-144 -143
142 143 144
-145 28
-145 29
-28 -29 145
-146 141
-146 -144
-141 144 146
-147 -141
-147 144
141 -144 147
-148 -146
-148 -147
146 147 148
-149 -141
-149 -144
141 144 149
-150 -145
-150 -149
145 149 150
-151 -29
-151 30
29 -30 151
-152 29
-152 -30
-29 30 152
-153 -151
-153 -152
151 152 153
-154 29
-154 30
-29 -30 154
-155 150
-155 -153
-150 153 155
-156 -150
-156 153
150 -153 156
-157 -155
-157 -156
155 156 157
-158 -150
-158 -153
150 153 158
-159 -154
-159 -158
154 158 159
-160 -30
-160 31
30 -31 160
-161 30
-161 -31
-30 31 161
-162 -160
-162 -161
160 161 162
-163 30
-163 31
-30 -31 163
-164 159
-164 -162
-159 162 164
-165 -159
-165 162
159 -162 165
-166 -164
-166 -165
164 165 166
-167 -159
-167 -162
159 162 167
-168 -163
-168 -167
163 167 168
-169 -31
-169 32
31 -32 169
-170 31
-170 -32
-31 32 170
-171 -169
-171 -170
169 170 171
-172 31
-172 32
-31 -32 172
-173 168
-173 -171
-168 171 173
-174 -168
-174 171
168 -171 174
-175 -173
-175 -174
173 174 175
-176 -168
-176 -171
168 171 176
-177 -172
-177 -176
172 176 177
-178 -32
-178 33
32 -33 178
-179 32
-179 -33
-32 33 179
-180 -178
-180 -179
178 179 180
-181 32
-181 33
-32 -33 181
-182 177
-182 -180
-177 180 182
-183 -177
-183 180
177 -180 183
-184 -182
-184 -183
182 183 184
-185 -177
-185 -180
177 180 185
-186 -181
-186 -185
181 185 186
-187 -33
-187 34
33 -34 187
-188 33
-188 -34
-33 34 188
-189 -187
-189 -188
187 188 189
-190 33
-190 34
-33 -34 190
-191 186
-191 -189
-186 189 191
-192 -186
-192 189
186 -189 192
-193 -191
-193 -192
191 192 193
-194 -186
-194 -189
186 189 194
-195 -190
-195 -194
190 194 195
-196 -34
-196 35
34 -35 196
-197 34
-197 -35
-34 35 197
-198 -196
-198 -197
196 197 198
-199 34
-199 35
-34 -35 199
-200 195
-200 -198
-195 198 200
-201 -195
-201 198
195 -198 201
-202 -200
-202 -201
200 201 202
-203 -195
-203 -198
195 198 203
-204 -199
-204 -203
199 203 204
-205 -35
-205 36
35 -36 205
-206 35
-206 -36
-35 36 206
-207 -205
-207 -206
205 206 207
-208 35
-208 36
-35 -36 208
-209 204
-209 -207
-204 207 209
-210 -204
-210 207
204 -207 210
-211 -209
-211 -210
209 210 211
-212 -204
-212 -207
204 207 212
-213 -208
-213 -212
208 212 213
-214 -36
-214 37
36 -37 214
-215 36
-215 -37
-36 37 215
-216 -214
-216 -215
214 215 216
-217 36
-217 37
-36 -37 217
-218 213
-218 -216
-213 216 218
-219 -213
-219 216
213 -216 219
-220 -218
-220 -219
218 219 220
-221 -213
-221 -216
213 216 221
-222 -217
-222 -221
217 221 222
-223 -37
-223 38
37 -38 223
-224 37
-224 -38
-37 38 224
-225 -223
-225 -224
223 224 225
-226 37
-226 38
-37 -38 226
-227 222
-227 -225
-222 225 227
-228 -222
-228 225
222 -225 228
-229 -227
-229 -228
227 228 229
-230 -222
-230 -225
222 225 230
-231 -226
-231 -230
226 230 231
-232 -38
-232 39
38 -39 232
-233 38
-233 -39
-38 39 233
-234 -232
-234 -233
232 233 234
-235 38
-235 39
-38 -39 235
-236 231
-236 -234
-231 234 236
-237 -231
-237 234
231 -234 237
-238 -236
-238 -237
236 237 238
-239 -231
-239 -234
231 234 239
-240 -235
-240 -239
235 239 240
-241 -39
-241 40
39 -40 241
-242 39
-242 -40
-39 40 242
-243 -241
-243 -242
241 242 243
-244 39
-244 40
-39 -40 244
-245 240
-245 -243
-240 243 245
-246 -240
-246 243
240 -243 246
-247 -245
-247 -246
245 246 247
-248 -240
-248 -243
240 243 248
-249 -244
-249 -248
244 248 249
-250 -40
-250 41
40 -41 250
-251 40
-251 -41
-40 41 251
-252 -250
-252 -251
250 251 252
-253 40
-253 41
-40 -41 253
-254 249
-254 -252
-249 252 254
-255 -249
-255 252
249 -252 255
-256 -254
-256 -255
254 255 256
-257 -249
-257 -252
249 252 257
-258 -253
-258 -257
253 257 258
-259 -41
-259 42
41 -42 259
-260 41
-260 -42
-41 42 260
-261 -259
-261 -260
259 260 261
-262 41
-262 42
-41 -42 262
-263 258
-263 -261
-258 261 263
-264 -258
-264 261
258 -261 264
-265 -263
-265 -264
263 264 265
-266 -258
-266 -261
258 261 266
-267 -262
-267 -266
262 266 267
-268 -42
-268 43
42 -43 268
-269 42
-269 -43
-42 43 269
-270 -268
-270 -269
268 269 270
-271 42
-271 43
-42 -43 271
-272 267
-272 -270
-267 270 272
-273 -267
-273 270
267 -270 273
-274 -272
-274 -273
272 273 274
-275 -267
-275 -270
267 270 275
-276 -271
-276 -275
271 275 276
-277 -43
-277 44
43 -44 277
-278 43
-278 -44
-43 44 278
-279 -277
-279 -278
277 278 279
-280 43
-280 44
-43 -44 280
-281 276
-281 -279
-276 279 281
-282 -276
-282 279
276 -279 282
-283 -281
-283 -282
281 282 283
-284 -276
-284 -279
276 279 284
-285 -280
-285 -284
280 284 285
-286 -44
-286 45
44 -45 286
-287 44
-287 -45
-44 45 287
-288 -286
-288 -287
286 287 288
-289 44
-289 45
-44 -45 289
-290 285
-290 -288
-285 288 290
-291 -285
-291 288
285 -288 291
-292 -290
-292 -291
290 291 292
-293 -285
-293 -288
285 288 293
-294 -289
-294 -293
289 293 294
-295 -45
-295 46
45 -46 295
-296 45
-296 -46
-45 46 296
-297 -295
-297 -296
295 296 297
-298 45
-298 46
-45 -46 298
-299 294
-299 -297
-294 297 299
-300 -294
-300 297
294 -297 300
-301 -299
-301 -300
299 300 301
-302 -294
-302 -297
294 297 302
-303 -298
-303 -302
298 302 303
-304 -46
-304 47
46 -47 304
-305 46
-305 -47
-46 47 305
-306 -304
-306 -305
304 305 306
-307 46
-307 47
-46 -47 307
-308 303
-308 -306
-303 306 308
-309 -303
-309 306
303 -306 309
-310 -308
-310 -309
308 309 310
-311 -303
-311 -306
303 306 311
-312 -307
-312 -311
307 311 312
-313 -47
-313 48
47 -48 313
-314 47
-314 -48
-47 48 314
-315 -313
-315 -314
313 314 315
-316 47
-316 48
-47 -48 316
-317 312
-317 -315
-312 315 317
-318 -312
-318 315
312 -315 318
-319 -317
-319 -318
317 318 319
-320 -312
-320 -315
312 315 320
-321 -316
-321 -320
316 320 321
-322 -48
-322 49
48 -49 322
-323 48
-323 -49
-48 49 323
-324 -322
-324 -323
322 323 324
-325 48
-325 49
-48 -49 325
-326 321
-326 -324
-321 324 326
-327 -321
-327 324
321 -324 327
-328 -326
-328 -327
326 327 328
-329 -321
-329 -324
321 324 329
-330 -325
-330 -329
325 329 330
-331 -49
-331 50
49 -50 331
-332 49
-332 -50
-49 50 332
-333 -331
-333 -332
331 332 333
-334 49
-334 50
-49 -50 334
-335 330
-335 -333
-330 333 335
-336 -330
-336 333
330 -333 336
-337 -335
-337 -336
335 336 337
-338 -330
-338 -333
330 333 338
-339 -334
-339 -338
334 338 339
-340 -50
-340 51
50 -51 340
-341 50
-341 -51
-50 51 341
-342 -340
-342 -341
340 341 342
-343 50
-343 51
-50 -51 343
-344 339
-344 -342
-339 342 344
-345 -339
-345 342
339 -342 345
-346 -344
-346 -345
344 345 346
-347 -339
-347 -342
339 342 347
-348 -343
-348 -347
343 347 348
-349 -51
-349 52
51 -52 349
-350 51
-350 -52
-51 52 350
-351 -349
-351 -350
349 350 351
-352 51
-352 52
-51 -52 352
-353 348
-353 -351
-348 351 353
-354 -348
-354 351
348 -351 354
-355 -353
-355 -354
353 354 355
-356 -348
-356 -351
348 351 356
-357 -352
-357 -356
352 356 357
-358 -52
-358 53
52 -53 358
-359 52
-359 -53
-52 53 359
-360 -358
-360 -359
358 359 360
-361 52
-361 53
-52 -53 361
-362 357
-362 -360
-357 360 362
-363 -357
-363 360
357 -360 363
-364 -362
-364 -363
362 363 364
-365 -357
-365 -360
357 360 365
-366 -361
-366 -365
361 365 366
-367 -53
-367 54
53 -54 367
-368 53
-368 -54
-53 54 368
-369 -367
-369 -368
367 368 369
-370 53
-370 54
-53 -54 370
-371 366
-371 -369
-366 369 371
-372 -366
-372 369
366 -369 372
-373 -371
-373 -372
371 372 373
-374 -366
-374 -369
366 369 374
-375 -370
-375 -374
370 374 375
-376 -54
-376 55
54 -55 376
-377 54
-377 -55
-54 55 377
-378 -376
-378 -377
376 377 378
-379 54
-379 55
-54 -55 379
-380 375
-380 -378
-375 378 380
-381 -375
-381 378
375 -378 381
-382 -380
-382 -381
380 381 382
-383 -375
-383 -378
375 378 383
-384 -379
-384 -383
379 383 384
-385 -55
-385 56
55 -56 385
-386 55
-386 -56
-55 56 386
-387 -385
-387 -386
385 386 387
-388 55
-388 56
-55 -56 388
-389 384
-389 -387
-384 387 389
-390 -384
-390 387
384 -387 390
-391 -389
-391 -390
389 390 391
-392 -384
-392 -387
384 387 392
-393 -388
-393 -392
388 392 393
-394 -56
-394 57
56 -57 394
-395 56
-395 -57
-56 57 395
-396 -394
-396 -395
394 395 396
-397 56
-397 57
-56 -57 397
-398 393
-398 -396
-393 396 398
-399 -393
-399 396
393 -396 399
-400 -398
-400 -399
398 399 400
-401 -393
-401 -396
393 396 401
-402 -397
-402 -401
397 401 402
-403 -57
-403 58
57 -58 403
-404 57
-404 -58
-57 58 404
-405 -403
-405 -404
403 404 405
-406 57
-406 58
-57 -58 406
-407 402
-407 -405
-402 405 407
-408 -402
-408 405
402 -405 408
-409 -407
-409 -408
407 408 409
-410 -402
-410 -405
402 405 410
-411 -406
-411 -410
406 410 411
-412 -58
-412 59
58 -59 412
-413 58
-413 -59
-58 59 413
-414 -412
-414 -413
412 413 414
-415 58
-415 59
-58 -59 415
-416 411
-416 -414
-411 414 416
-417 -411
-417 414
411 -414 417
-418 -416
-418 -417
416 417 418
-419 -411
-419 -414
411 414 419
-420 -415
-420 -419
415 419 420
-421 -59
-421 60
59 -60 421
-422 59
-422 -60
-59 60 422
-423 -421
-423 -422
421 422 423
-424 59
-424 60
-59 -60 424
-425 420
-425 -423
-420 423 425
-426 -420
-426 423
420 -423 426
-427 -425
-427 -426
425 426 427
-428 -420
-428 -423
420 423 428
-429 -424
-429 -428
424 428 429
-430 23
-430 -103
-23 103 430
-431 -23
-431 25
23 -25 431
-432 -430
-432 -431
430 431 432
-433 23
-433 -112
-23 112 433
-434 -23
-434 26
23 -26 434
-435 -433
-435 -434
433 434 435
-436 23
-436 -121
-23 121 436
-437 -23
-437 27
23 -27 437
-438 -436
-438 -437
436 437 438
-439 23
-439 -130
-23 130 439
-440 -23
-440 28
23 -28 440
-441 -439
-441 -440
439 440 441
-442 23
-442 -139
-23 139 442
-443 -23
-443 29
23 -29 443
-444 -442
-444 -443
442 443 444
-445 23
-445 -148
-23 148 445
-446 -23
-446 30
23 -30 446
-447 -445
-447 -446
445 446 447
-448 23
-448 -157
-23 157 448
-449 -23
-449 31
23 -31 449
-450 -448
-450 -449
448 449 450
-451 23
-451 -166
-23 166 451
-452 -23
-452 32
23 -32 452
-453 -451
-453 -452
451 452 453
-454 23
-454 -175
-23 175 454
-455 -23
-455 33
23 -33 455
-456 -454
-456 -455
454 455 456
-457 23
-457 -184
-23 184 457
-458 -23
-458 34
23 -34 458
-459 -457
-459 -458
457 458 459
-460 23
-460 -193
-23 193 460
-461 -23
-461 35
23 -35 461
-462 -460
-462 -461
460 461 462
-463 23
-463 -202
-23 202 463
-464 -23
-464 36
23 -36 464
-465 -463
-465 -464
463 464 465
-466 23
-466 -211
-23 211 466
-467 -23
-467 37
23 -37 467
-468 -466
-468 -467
466 467 468
-469 23
-469 -220
-23 220 469
-470 -23
-470 38
23 -38 470
-471 -469
-471 -470
469 470 471
-472 23
-472 -229
-23 229 472
-473 -23
-473 39
23 -39 473
-474 -472
-474 -473
472 473 474
-475 23
-475 -238
-23 238 475
-476 -23
-476 40
23 -40 476
-477 -475
-477 -476
475 476 477
-478 23
-478 -247
-23 247 478
-479 -23
-479 41
23 -41 479
-480 -478
-480 -479
478 479 480
-481 23
-481 -256
-23 256 481
-482 -23
-482 42
23 -42 482
-483 -481
-483 -482
481 482 483
-484 23
-484 -265
-23 265 484
-485 -23
-485 43
23 -43 485
-486 -484
-486 -485
484 485 486
-487 23
-487 -274
-23 274 487
-488 -23
-488 44
23 -44 488
-489 -487
-489 -488
487 488 489
-490 23
-490 -283
-23 283 490
-491 -23
-491 45
23 -45 491
-492 -490
-492 -491
490 491 492
-493 23
-493 -292
-23 292 493
-494 -23
-494 46
23 -46 494
-495 -493
-495 -494
493 494 495
-496 23
-496 -301
-23 301 496
-497 -23
-497 47
23 -47 497
-498 -496
-498 -497
496 497 498
-499 23
-499 -310
-23 310 499
-500 -23
-500 48
23 -48 500
-501 -499
-501 -500
499 500 501
-502 23
-502 -319
-23 319 502
-503 -23
-503 49
23 -49 503
-504 -502
-504 -503
502 503 504
-505 23
-505 -328
-23 328 505
-506 -23
-506 50
23 -50 506
-507 -505
-507 -506
505 506 507
-508 23
-508 -337
-23 337 508
-509 -23
-509 51
23 -51 509
-510 -508
-510 -509
508 509 510
-511 23
-511 -346
-23 346 511
-512 -23
-512 52
23 -52 512
-513 -511
-513 -512
511 512 513
-514 23
-514 -355
-23 355 514
-515 -23
-515 53
23 -53 515
-516 -514
-516 -515
514 515 516
-517 23
-517 -364
-23 364 517
-518 -23
-518 54
23 -54 518
-519 -517
-519 -518
517 518 519
-520 23
-520 -373
-23 373 520
-521 -23
-521 55
23 -55 521
-522 -520
-522 -521
520 521 522
-523 23
-523 -382
-23 382 523
-524 -23
-524 56
23 -56 524
-525 -523
-525 -524
523 524 525
-526 23
-526 -391
-23 391 526
-527 -23
-527 57
23 -57 527
-528 -526
-528 -527
526 527 528
-529 23
-529 -400
-23 400 529
-530 -23
-530 58
23 -58 530
-531 -529
-531 -530
529 530 531
-532 23
-532 -409
-23 409 532
-533 -23
-533 59
23 -59 533
-534 -532
-534 -533
532 533 534
-535 23
-535 -418
-23 418 535
-536 -23
-536 60
23 -60 536
-537 -535
-537 -536
535 536 537
-538 23
-538 -427
-23 427 538
-539 1
-539 96
-1 -96 539
-540 -96
-540 97
96 -97 540
-541 -539
-541 -540
539 540 541
-542 2
-542 96
-2 -96 542
-543 -96
-543 -432
96 432 543
-544 -542
-544 -543
542 543 544
-545 3
-545 96
-3 -96 545
-546 -96
-546 -435
96 435 546
-547 -545
-547 -546
545 546 547
-548 4
-548 96
-4 -96 548
-549 -96
-549 -438
96 438 549
-550 -548
-550 -549
548 549 550
-551 5
-551 96
-5 -96 551
-552 -96
-552 -441
96 441 552
-553 -551
-553 -552
551 552 553
-554 6
-554 96
-6 -96 554
-555 -96
-555 -444
96 444 555
-556 -554
-556 -555
554 555 556
-557 7
-557 96
-7 -96 557
-558 -96
-558 -447
96 447 558
-559 -557
-559 -558
557 558 559
-560 8
-560 96
-8 -96 560
-561 -96
-561 -450
96 450 561
-562 -560
-562 -561
560 561 562
-563 9
-563 96
-9 -96 563
-564 -96
-564 -453
96 453 564
-565 -563
-565 -564
563 564 565
-566 10
-566 96
-10 -96 566
-567 -96
-567 -456
96 456 567
-568 -566
-568 -567
566 567 568
-569 11
-569 96
-11 -96 569
-570 -96
-570 -459
96 459 570
-571 -569
-571 -570
569 570 571
-572 12
-572 96
-12 -96 572
-573 -96
-573 -462
96 462 573
-574 -572
-574 -573
572 573 574
-575 13
-575 96
-13 -96 575
-576 -96
-576 -465
96 465 576
-577 -575
-577 -576
575 576 577
-578 14
-578 96
-14 -96 578
-579 -96
-579 -468
96 468 579
-580 -578
-580 -579
578 579 580
-581 15
-581 96
-15 -96 581
-582 -96
-582 -471
96 471 582
-583 -581
-583 -582
581 582 583
-584 16
-584 96
-16 -96 584
-585 -96
-585 -474
96 474 585
-586 -584
-586 -585
584 585 586
-587 17
-587 96
-17 -96 587
-588 -96
-588 -477
96 477 588
-589 -587
-589 -588
587 588 589
-590 18
-590 96
-18 -96 590
-591 -96
-591 -480
96 480 591
-592 -590
-592 -591
590 591 592
-593 19
-593 96
-19 -96 593
-594 -96
-594 -483
96 483 594
-595 -593
-595 -594
593 594 595
-596 20
-596 96
-20 -96 596
-597 -96
-597 -486
96 486 597
-598 -596
-598 -597
596 597 598
-599 21
-599 96
-21 -96 599
-600 -96
-600 -489
96 489 600
-601 -599
-601 -600
599 600 601
-602 22
-602 96
-22 -96 602
-603 -96
-603 -492
96 492 603
-604 -602
-604 -603
602 603 604
-605 -96
-605 -495
96 495 605
-606 -96
-606 -498
96 498 606
-607 -96
-607 -501
96 501 607
-608 -96
-608 -504
96 504 608
-609 -96
-609 -507
96 507 609
-610 -96
-610 -510
96 510 610
-611 -96
-611 -513
96 513 611
-612 -96
-612 -516
96 516 612
-613 -96
-613 -519
96 519 613
-614 -96
-614 -522
96 522 614
-615 -96
-615 -525
96 525 615
-616 -96
-616 -528
96 528 616
-617 -96
-617 -531
96 531 617
-618 -96
-618 -534
96 534 618
-619 -96
-619 -537
96 537 619
-620 -96
-620 538
96 -538 620
-621 -60
-621 429
60 -429 621
-622 23
-622 -621
-23 621 622
622
